; 
(set-info :status unknown)
(declare-fun node_0x7ffff1460eb0 () (_ BitVec 64))
(declare-fun node_0x7ffff1449060 () (_ BitVec 1))
(declare-fun node_0x7ffff1449840 () (_ BitVec 1))
(declare-fun node_0x7ffff144b020 () (_ BitVec 1))
(declare-fun node_0x7ffff144e270 () (_ BitVec 1))
(declare-fun node_0x7ffff1454280 () (_ BitVec 1))
(declare-fun ine_0x7ffff1491930 () (_ BitVec 1))
(declare-fun node_0x7ffff147f760 () (_ BitVec 32))
(declare-fun node_0x7ffff1446040 () (_ BitVec 1))
(declare-fun node_0x7ffff1446bd0 () (_ BitVec 1))
(declare-fun node_0x7ffff148c630 () (_ BitVec 32))
(declare-fun ieq_0x7ffff1490bc0 () (_ BitVec 1))
(declare-fun islt_0x7ffff148f300 () (_ BitVec 1))
(declare-fun select_0x7ffff148c7d0 () (_ BitVec 32))
(declare-fun node_0x7ffff148b7c0 () (_ BitVec 32))
(declare-fun node_0x7ffff148bbe0 () (_ BitVec 1))
(declare-fun node_0x7ffff148aef0 () (_ BitVec 1))
(declare-fun select_0x7ffff148b940 () (_ BitVec 32))
(declare-fun or_0x7ffff148e6b0 () (_ BitVec 1))
(declare-fun carg_node_0x7ffff1443b00 () (_ BitVec 64))
(declare-fun node_0x7ffff148c0d0 () (_ BitVec 64))
(declare-fun fogt_0x7ffff148e360 () (_ BitVec 1))
(declare-fun node_0x7ffff148e1c0 () (_ BitVec 1))
(declare-fun node_0x7ffff148dcd0 () (_ BitVec 1))
(declare-fun fule_0x7ffff148de50 () (_ BitVec 1))
(declare-fun node_0x7ffff148d890 () (_ BitVec 64))
(declare-fun select_0x7ffff148da30 () (_ BitVec 64))
(declare-fun node_0x7ffff148cf60 () (_ BitVec 64))
(declare-fun node_0x7ffff148a5e0 () (_ BitVec 64))
(declare-fun node_0x7ffff148d3a0 () (_ BitVec 1))
(declare-fun folt_0x7ffff148d520 () (_ BitVec 1))
(declare-fun fdiv_0x7ffff148a360 () (_ BitVec 64))
(declare-fun node_0x7ffff148a1c0 () (_ BitVec 64))
(declare-fun LdMem_0x7ffff1489e50 () (_ BitVec 64))
(declare-fun node_0x7ffff1489cd0 () (_ BitVec 64))
(declare-fun pcso_node_0x12a8ce50 () (_ BitVec 64))
(declare-fun StMem_0x12a8d000 () (_ BitVec 64))
(declare-fun R0x7ffff1443440 () (_ BitVec 1))
(declare-fun node_0x7ffff14891d0 () (_ BitVec 64))
(declare-fun fsub_0x7ffff1489370 () (_ BitVec 64))
(declare-fun LdMem_0x7ffff1480240 () (_ BitVec 64))
(declare-fun node_0x7ffff14881e0 () (_ BitVec 64))
(declare-fun node_0x7ffff1488d80 () (_ BitVec 64))
(declare-fun LdMem_0x7ffff1488f00 () (_ BitVec 64))
(declare-fun pcso_node_0x12a8a220 () (_ BitVec 64))
(declare-fun StMem_0x12a8a3d0 () (_ BitVec 64))
(declare-fun node_0x7ffff1484830 () (_ BitVec 64))
(declare-fun node_0x7ffff14483e0 () (_ BitVec 1))
(declare-fun node_0x7ffff1447850 () (_ BitVec 1))
(declare-fun fdiv_0x7ffff14849d0 () (_ BitVec 64))
(declare-fun LdMem_0x7ffff14844c0 () (_ BitVec 64))
(declare-fun node_0x7ffff1484340 () (_ BitVec 64))
(declare-fun pcso_node_0x12a814c0 () (_ BitVec 64))
(declare-fun StMem_0x12a81670 () (_ BitVec 64))
(declare-fun node_0x7ffff1483840 () (_ BitVec 64))
(declare-fun fsub_0x7ffff14839e0 () (_ BitVec 64))
(declare-fun LdMem_0x7ffff14829f0 () (_ BitVec 64))
(declare-fun node_0x7ffff1482850 () (_ BitVec 64))
(declare-fun node_0x7ffff14833f0 () (_ BitVec 64))
(declare-fun LdMem_0x7ffff1483570 () (_ BitVec 64))
(declare-fun pcso_node_0x12a7e890 () (_ BitVec 64))
(declare-fun StMem_0x12a7ea40 () (_ BitVec 64))
(declare-fun select_0x7ffff148d100 () (_ BitVec 64))
(declare-fun node_0x7ffff147f140 () (_ BitVec 64))
(declare-fun node_0x7ffff1474e20 () (_ BitVec 64))
(declare-fun node_0x7ffff148ca70 () (_ BitVec 1))
(declare-fun folt_0x7ffff148cbf0 () (_ BitVec 1))
(declare-fun fmul_0x7ffff147ef10 () (_ BitVec 64))
(declare-fun node_0x7ffff147ed70 () (_ BitVec 64))
(declare-fun node_0x7ffff147aea0 () (_ BitVec 64))
(declare-fun node_0x7ffff147e9a0 () (_ BitVec 64))
(declare-fun fsub_0x7ffff147eb40 () (_ BitVec 64))
(declare-fun LdMem_0x7ffff14754c0 () (_ BitVec 64))
(declare-fun node_0x7ffff147d9b0 () (_ BitVec 64))
(declare-fun node_0x7ffff147e550 () (_ BitVec 64))
(declare-fun LdMem_0x7ffff147e6d0 () (_ BitVec 64))
(declare-fun pcso_node_0x12a755f0 () (_ BitVec 64))
(declare-fun StMem_0x12a757a0 () (_ BitVec 64))
(declare-fun node_0x7ffff147a130 () (_ BitVec 64))
(declare-fun fmul_0x7ffff147a2d0 () (_ BitVec 64))
(declare-fun node_0x7ffff14763a0 () (_ BitVec 64))
(declare-fun node_0x7ffff1479d60 () (_ BitVec 64))
(declare-fun fsub_0x7ffff1479f00 () (_ BitVec 64))
(declare-fun LdMem_0x7ffff1478f60 () (_ BitVec 64))
(declare-fun node_0x7ffff1478dc0 () (_ BitVec 64))
(declare-fun node_0x7ffff1479960 () (_ BitVec 64))
(declare-fun LdMem_0x7ffff1479ae0 () (_ BitVec 64))
(declare-fun pcso_node_0x12a6f630 () (_ BitVec 64))
(declare-fun StMem_0x12a6f7e0 () (_ BitVec 64))
(declare-fun fmul_0x7ffff1474640 () (_ BitVec 64))
(declare-fun node_0x7ffff14744a0 () (_ BitVec 64))
(declare-fun node_0x7ffff1470cc0 () (_ BitVec 64))
(declare-fun node_0x7ffff14740d0 () (_ BitVec 64))
(declare-fun fsub_0x7ffff1474270 () (_ BitVec 64))
(declare-fun LdMem_0x7ffff146d200 () (_ BitVec 64))
(declare-fun node_0x7ffff14730e0 () (_ BitVec 64))
(declare-fun node_0x7ffff1473c80 () (_ BitVec 64))
(declare-fun LdMem_0x7ffff1473e00 () (_ BitVec 64))
(declare-fun pcso_node_0x12a69050 () (_ BitVec 64))
(declare-fun StMem_0x12a69230 () (_ BitVec 64))
(declare-fun node_0x7ffff146ff40 () (_ BitVec 64))
(declare-fun node_0x7ffff1445290 () (_ BitVec 1))
(declare-fun node_0x7ffff1444e70 () (_ BitVec 1))
(declare-fun fmul_0x7ffff14700e0 () (_ BitVec 64))
(declare-fun node_0x7ffff146c880 () (_ BitVec 64))
(declare-fun node_0x7ffff146fb70 () (_ BitVec 64))
(declare-fun fsub_0x7ffff146fd10 () (_ BitVec 64))
(declare-fun LdMem_0x7ffff146ed00 () (_ BitVec 64))
(declare-fun node_0x7ffff146eb80 () (_ BitVec 64))
(declare-fun node_0x7ffff146f720 () (_ BitVec 64))
(declare-fun LdMem_0x7ffff146f8a0 () (_ BitVec 64))
(declare-fun pcso_node_0x12a63090 () (_ BitVec 64))
(declare-fun StMem_0x12a63270 () (_ BitVec 64))
(declare-fun fogt_0x7ffff148ece0 () (_ BitVec 1))
(declare-fun carg_node_0x7ffff1443950 () (_ BitVec 64))
(declare-fun select_0x7ffff148c270 () (_ BitVec 64))
(declare-fun node_0x7ffff148b380 () (_ BitVec 64))
(declare-fun node_0x7ffff148a910 () (_ BitVec 64))
(declare-fun fogt_0x7ffff148bd60 () (_ BitVec 1))
(declare-fun fdiv_0x7ffff1487b60 () (_ BitVec 64))
(declare-fun node_0x7ffff14879c0 () (_ BitVec 64))
(declare-fun LdMem_0x7ffff1487650 () (_ BitVec 64))
(declare-fun node_0x7ffff14874d0 () (_ BitVec 64))
(declare-fun pcso_node_0x12a87240 () (_ BitVec 64))
(declare-fun StMem_0x12a873f0 () (_ BitVec 64))
(declare-fun node_0x7ffff14868c0 () (_ BitVec 64))
(declare-fun fsub_0x7ffff1486a60 () (_ BitVec 64))
(declare-fun LdMem_0x7ffff14865f0 () (_ BitVec 64))
(declare-fun node_0x7ffff1486470 () (_ BitVec 64))
(declare-fun pcso_node_0x12a844a0 () (_ BitVec 64))
(declare-fun StMem_0x12a84650 () (_ BitVec 64))
(declare-fun node_0x7ffff1485920 () (_ BitVec 64))
(declare-fun pcso_node_0x12a5d2d0 () (_ BitVec 64))
(declare-fun StMem_0x12a5d480 () (_ BitVec 64))
(declare-fun node_0x7ffff1482030 () (_ BitVec 64))
(declare-fun node_0x7ffff146b6d0 () (_ BitVec 64))
(declare-fun folt_0x7ffff1484c50 () (_ BitVec 1))
(declare-fun fogt_0x7ffff147fa50 () (_ BitVec 1))
(declare-fun LdMem_0x7ffff146b850 () (_ BitVec 64))
(declare-fun pcso_node_0x12a57ae0 () (_ BitVec 64))
(declare-fun StMem_0x12a57c90 () (_ BitVec 64))
(declare-fun fdiv_0x7ffff14821d0 () (_ BitVec 64))
(declare-fun LdMem_0x7ffff1481cc0 () (_ BitVec 64))
(declare-fun node_0x7ffff1481b40 () (_ BitVec 64))
(declare-fun pcso_node_0x12a7b780 () (_ BitVec 64))
(declare-fun StMem_0x12a7b930 () (_ BitVec 64))
(declare-fun node_0x7ffff1481040 () (_ BitVec 64))
(declare-fun fsub_0x7ffff14811e0 () (_ BitVec 64))
(declare-fun LdMem_0x7ffff1480d70 () (_ BitVec 64))
(declare-fun node_0x7ffff1480bf0 () (_ BitVec 64))
(declare-fun pcso_node_0x12a78b50 () (_ BitVec 64))
(declare-fun StMem_0x12a78d00 () (_ BitVec 64))
(declare-fun node_0x7ffff14800a0 () (_ BitVec 64))
(declare-fun pcso_node_0x12a5aa40 () (_ BitVec 64))
(declare-fun StMem_0x12a5abf0 () (_ BitVec 64))
(declare-fun select_0x7ffff148b520 () (_ BitVec 64))
(declare-fun node_0x7ffff147f470 () (_ BitVec 64))
(declare-fun node_0x7ffff14757a0 () (_ BitVec 64))
(declare-fun fogt_0x7ffff148b050 () (_ BitVec 1))
(declare-fun fmul_0x7ffff1466690 () (_ BitVec 64))
(declare-fun node_0x7ffff14664f0 () (_ BitVec 64))
(declare-fun fdiv_0x7ffff147b010 () (_ BitVec 64))
(declare-fun node_0x7ffff146ab20 () (_ BitVec 64))
(declare-fun node_0x7ffff147c610 () (_ BitVec 64))
(declare-fun fsub_0x7ffff14662c0 () (_ BitVec 64))
(declare-fun LdMem_0x7ffff147c340 () (_ BitVec 64))
(declare-fun node_0x7ffff147c1c0 () (_ BitVec 64))
(declare-fun pcso_node_0x12a72610 () (_ BitVec 64))
(declare-fun StMem_0x12a727c0 () (_ BitVec 64))
(declare-fun node_0x7ffff147b670 () (_ BitVec 64))
(declare-fun pcso_node_0x12a5ce80 () (_ BitVec 64))
(declare-fun StMem_0x12a5d030 () (_ BitVec 64))
(declare-fun node_0x7ffff14785d0 () (_ BitVec 64))
(declare-fun folt_0x7ffff147a500 () (_ BitVec 1))
(declare-fun fogt_0x7ffff1475f20 () (_ BitVec 1))
(declare-fun LdMem_0x7ffff146aca0 () (_ BitVec 64))
(declare-fun pcso_node_0x12a55260 () (_ BitVec 64))
(declare-fun StMem_0x12a55410 () (_ BitVec 64))
(declare-fun fmul_0x7ffff1478770 () (_ BitVec 64))
(declare-fun fdiv_0x7ffff1476d20 () (_ BitVec 64))
(declare-fun node_0x7ffff1478200 () (_ BitVec 64))
(declare-fun fsub_0x7ffff14783a0 () (_ BitVec 64))
(declare-fun LdMem_0x7ffff1477f30 () (_ BitVec 64))
(declare-fun node_0x7ffff1477db0 () (_ BitVec 64))
(declare-fun pcso_node_0x12a6c570 () (_ BitVec 64))
(declare-fun StMem_0x12a6c720 () (_ BitVec 64))
(declare-fun node_0x7ffff1477350 () (_ BitVec 64))
(declare-fun pcso_node_0x12a5a5f0 () (_ BitVec 64))
(declare-fun StMem_0x12a5a7a0 () (_ BitVec 64))
(declare-fun fmul_0x7ffff1472ab0 () (_ BitVec 64))
(declare-fun node_0x7ffff1472910 () (_ BitVec 64))
(declare-fun fdiv_0x7ffff1470e30 () (_ BitVec 64))
(declare-fun node_0x7ffff1469fe0 () (_ BitVec 64))
(declare-fun node_0x7ffff1472540 () (_ BitVec 64))
(declare-fun fsub_0x7ffff14726e0 () (_ BitVec 64))
(declare-fun LdMem_0x7ffff1472270 () (_ BitVec 64))
(declare-fun node_0x7ffff14720f0 () (_ BitVec 64))
(declare-fun pcso_node_0x12a66070 () (_ BitVec 64))
(declare-fun StMem_0x12a66250 () (_ BitVec 64))
(declare-fun node_0x7ffff1471490 () (_ BitVec 64))
(declare-fun pcso_node_0x12a5ca80 () (_ BitVec 64))
(declare-fun StMem_0x12a5cc60 () (_ BitVec 64))
(declare-fun node_0x7ffff146e380 () (_ BitVec 64))
(declare-fun folt_0x7ffff14705a0 () (_ BitVec 1))
(declare-fun fogt_0x7ffff146c340 () (_ BitVec 1))
(declare-fun LdMem_0x7ffff146a160 () (_ BitVec 64))
(declare-fun pcso_node_0x12a52ff0 () (_ BitVec 64))
(declare-fun StMem_0x12a531d0 () (_ BitVec 64))
(declare-fun fmul_0x7ffff146e520 () (_ BitVec 64))
(declare-fun fdiv_0x7ffff146c9f0 () (_ BitVec 64))
(declare-fun node_0x7ffff146dfb0 () (_ BitVec 64))
(declare-fun fsub_0x7ffff146e150 () (_ BitVec 64))
(declare-fun LdMem_0x7ffff146dd30 () (_ BitVec 64))
(declare-fun node_0x7ffff146dbb0 () (_ BitVec 64))
(declare-fun pcso_node_0x12a5ffb0 () (_ BitVec 64))
(declare-fun StMem_0x12a60190 () (_ BitVec 64))
(declare-fun node_0x7ffff146d080 () (_ BitVec 64))
(declare-fun pcso_node_0x12a5a1f0 () (_ BitVec 64))
(declare-fun StMem_0x12a5a3d0 () (_ BitVec 64))
(declare-fun node_0x12a56ef0 () (_ BitVec 64))
(declare-fun parg_node_0x107b61b0_CS0x406d048 () (_ BitVec 64))
(declare-fun LdMem_0x12a56cc0 () (_ BitVec 64))
(declare-fun parg_node_0x12a52970 () (_ BitVec 64))
(declare-fun StMem_0x12a527c0 () (_ BitVec 64))
(declare-fun node_0x107b7d30_CS0x406d048 () (_ BitVec 64))
(declare-fun node_0x12a59e80 () (_ BitVec 64))
(declare-fun parg_node_0x12a4df10_CS0x406d548 () (_ BitVec 64))
(declare-fun LdMem_0x12a59830 () (_ BitVec 64))
(declare-fun parg_node_0x12a59b50 () (_ BitVec 64))
(declare-fun StMem_0x12a599a0 () (_ BitVec 64))
(declare-fun node_0x12a4fab0_CS0x406d548 () (_ BitVec 64))
(declare-fun node_0x12a77f30 () (_ BitVec 64))
(declare-fun parg_node_0x107ae730_CS0x4072bc8 () (_ BitVec 64))
(declare-fun LdMem_0x12a77bc0 () (_ BitVec 64))
(declare-fun parg_node_0x12a5f7d0 () (_ BitVec 64))
(declare-fun StMem_0x12a5f620 () (_ BitVec 64))
(declare-fun node_0x107b0280_CS0x4072bc8 () (_ BitVec 64))
(declare-fun node_0x12a7ab60 () (_ BitVec 64))
(declare-fun parg_node_0x107b61b0_CS0x4072e38 () (_ BitVec 64))
(declare-fun LdMem_0x12a7a7f0 () (_ BitVec 64))
(declare-fun node_0x107b7d30_CS0x4072e38 () (_ BitVec 64))
(declare-fun node_0x12a5c710 () (_ BitVec 64))
(declare-fun parg_node_0x12a497d0_CS0x406d7b8 () (_ BitVec 64))
(declare-fun LdMem_0x12a5c060 () (_ BitVec 64))
(declare-fun parg_node_0x12a5c380 () (_ BitVec 64))
(declare-fun StMem_0x12a5c1d0 () (_ BitVec 64))
(declare-fun node_0x12a4b3d0_CS0x406d7b8 () (_ BitVec 64))
(declare-fun node_0x12a83880 () (_ BitVec 64))
(declare-fun parg_node_0x107ae730_CS0x4074038 () (_ BitVec 64))
(declare-fun LdMem_0x12a83510 () (_ BitVec 64))
(declare-fun node_0x107b0280_CS0x4074038 () (_ BitVec 64))
(assert
 (and (distinct node_0x7ffff1460eb0 (_ bv0 64)) true))
(assert
 (let (($x246 (= node_0x7ffff1449060 (_ bv1 1))))
 (let (($x259 (not $x246)))
 (let (($x248 (= node_0x7ffff1449840 (_ bv1 1))))
 (let (($x812 (and $x248 $x259)))
 (let (($x1079 (and (not (= node_0x7ffff144b020 (_ bv1 1))) $x812)))
 (let (($x1065 (= node_0x7ffff144e270 (_ bv1 1))))
 (let (($x367 (and $x1065 $x1079)))
 (let (($x342493 (= node_0x7ffff1454280 (_ bv1 1))))
 (and $x342493 $x367))))))))))
(assert
 (let (($x937 (= ine_0x7ffff1491930 (ite (and (distinct node_0x7ffff147f760 (_ bv0 32)) true) (_ bv1 1) (_ bv0 1)))))
 (let (($x1123 (= node_0x7ffff147f760 (_ bv0 32))))
 (let (($x258 (= node_0x7ffff147f760 (_ bv1 32))))
 (let (($x947 (= node_0x7ffff1446040 (_ bv1 1))))
 (let (($x954 (not $x947)))
 (let (($x953 (= node_0x7ffff1446bd0 (_ bv1 1))))
 (let (($x129 (and $x953 $x954)))
 (let (($x215 (not $x129)))
 (let (($x291 (or $x954 $x258)))
 (let (($x119 (= ieq_0x7ffff1490bc0 (ite (= node_0x7ffff148c630 (_ bv1 32)) (_ bv1 1) (_ bv0 1)))))
 (let (($x942 (= node_0x7ffff144b020 islt_0x7ffff148f300)))
 (let (($x826 (= islt_0x7ffff148f300 (ite (bvslt node_0x7ffff148c630 (_ bv1 32)) (_ bv1 1) (_ bv0 1)))))
 (let (($x832 (= select_0x7ffff148c7d0 (ite (= node_0x7ffff148bbe0 (_ bv1 1)) (_ bv2 32) node_0x7ffff148b7c0))))
 (let (($x684 (= node_0x7ffff148aef0 (_ bv1 1))))
 (let ((?x836 (ite $x684 (_ bv0 32) (_ bv1 32))))
 (let (($x837 (= select_0x7ffff148b940 ?x836)))
 (let (($x354 (= node_0x7ffff148b7c0 select_0x7ffff148b940)))
 (let (($x195 (= node_0x7ffff1449060 or_0x7ffff148e6b0)))
 (let (($x811 (= fogt_0x7ffff148e360 (ite (bvsgt node_0x7ffff148c0d0 carg_node_0x7ffff1443b00) (_ bv1 1) (_ bv0 1)))))
 (let (($x1081 (= node_0x7ffff148e1c0 fogt_0x7ffff148e360)))
 (let ((?x262 (bvor node_0x7ffff148dcd0 node_0x7ffff148e1c0)))
 (let (($x222 (= or_0x7ffff148e6b0 ?x262)))
 (let (($x800 (= node_0x7ffff148dcd0 fule_0x7ffff148de50)))
 (let (($x265 (bvsle node_0x7ffff148d890 node_0x7ffff148c0d0)))
 (let ((?x266 (ite $x265 (_ bv1 1) (_ bv0 1))))
 (let (($x267 (= fule_0x7ffff148de50 ?x266)))
 (let (($x965 (= node_0x7ffff148d890 select_0x7ffff148da30)))
 (let (($x273 (= node_0x7ffff148d3a0 (_ bv1 1))))
 (let ((?x274 (ite $x273 node_0x7ffff148a5e0 node_0x7ffff148cf60)))
 (let (($x275 (= select_0x7ffff148da30 ?x274)))
 (let (($x232 (= node_0x7ffff148d3a0 folt_0x7ffff148d520)))
 (let (($x280 (= folt_0x7ffff148d520 (ite (bvslt node_0x7ffff148a5e0 node_0x7ffff148cf60) (_ bv1 1) (_ bv0 1)))))
 (let (($x776 (= node_0x7ffff148a1c0 fdiv_0x7ffff148a360)))
 (let (($x951 (= node_0x7ffff1489cd0 LdMem_0x7ffff1489e50)))
 (let (($x962 (= LdMem_0x7ffff1489e50 StMem_0x12a8d000)))
 (let (($x348 (= node_0x7ffff1489cd0 (_ bv0 64))))
 (let (($x347 (= node_0x7ffff14891d0 (_ bv0 64))))
 (let (($x349 (or $x347 $x348)))
 (let (($x346 (= fdiv_0x7ffff148a360 (bvsdiv node_0x7ffff14891d0 node_0x7ffff1489cd0))))
 (let (($x352 (and $x346 (or $x349 (and (distinct fdiv_0x7ffff148a360 (_ bv0 64)) true)))))
 (let (($x956 (= node_0x7ffff14891d0 fsub_0x7ffff1489370)))
 (let (($x187 (= node_0x7ffff14881e0 LdMem_0x7ffff1480240)))
 (let (($x358 (= fsub_0x7ffff1489370 (bvsub node_0x7ffff14881e0 node_0x7ffff1488d80))))
 (let (($x131 (= node_0x7ffff1488d80 LdMem_0x7ffff1488f00)))
 (let (($x950 (= LdMem_0x7ffff1488f00 StMem_0x12a8a3d0)))
 (let (($x299 (= node_0x7ffff148a5e0 (_ bv0 64))))
 (let (($x294 (= node_0x7ffff148a5e0 node_0x7ffff148a1c0)))
 (let (($x289 (= node_0x7ffff148a5e0 node_0x7ffff1484830)))
 (let (($x751 (or $x289 $x294 $x299)))
 (let (($x976 (= node_0x7ffff14483e0 (_ bv1 1))))
 (let (($x296 (not $x976)))
 (let (($x971 (= node_0x7ffff1447850 (_ bv1 1))))
 (let (($x977 (not $x971)))
 (let (($x1055 (not (and $x977 $x296))))
 (let (($x757 (or $x977 $x289)))
 (let (($x759 (= node_0x7ffff1484830 fdiv_0x7ffff14849d0)))
 (let (($x151 (= node_0x7ffff1484340 LdMem_0x7ffff14844c0)))
 (let (($x955 (= LdMem_0x7ffff14844c0 StMem_0x12a81670)))
 (let (($x309 (= node_0x7ffff1484340 (_ bv0 64))))
 (let (($x308 (= node_0x7ffff1483840 (_ bv0 64))))
 (let (($x310 (or $x308 $x309)))
 (let (($x307 (= fdiv_0x7ffff14849d0 (bvsdiv node_0x7ffff1483840 node_0x7ffff1484340))))
 (let (($x313 (and $x307 (or $x310 (and (distinct fdiv_0x7ffff14849d0 (_ bv0 64)) true)))))
 (let (($x966 (= node_0x7ffff1483840 fsub_0x7ffff14839e0)))
 (let (($x209 (= node_0x7ffff1482850 LdMem_0x7ffff14829f0)))
 (let (($x319 (= fsub_0x7ffff14839e0 (bvsub node_0x7ffff1482850 node_0x7ffff14833f0))))
 (let (($x1091 (= node_0x7ffff14833f0 LdMem_0x7ffff1483570)))
 (let (($x958 (= LdMem_0x7ffff1483570 StMem_0x12a7ea40)))
 (let (($x188 (= node_0x7ffff148cf60 select_0x7ffff148d100)))
 (let (($x385 (= node_0x7ffff148ca70 (_ bv1 1))))
 (let ((?x386 (ite $x385 node_0x7ffff1474e20 node_0x7ffff147f140)))
 (let (($x387 (= select_0x7ffff148d100 ?x386)))
 (let (($x736 (= node_0x7ffff148ca70 folt_0x7ffff148cbf0)))
 (let (($x136 (= node_0x7ffff147ed70 fmul_0x7ffff147ef10)))
 (let (($x564 (= node_0x7ffff147aea0 (_ bv0 64))))
 (let (($x563 (= node_0x7ffff147e9a0 (_ bv0 64))))
 (let (($x565 (or $x563 $x564)))
 (let (($x562 (= fmul_0x7ffff147ef10 (bvmul node_0x7ffff147e9a0 node_0x7ffff147aea0))))
 (let (($x568 (and $x562 (or $x565 (and (distinct fmul_0x7ffff147ef10 (_ bv0 64)) true)))))
 (let (($x138 (= node_0x7ffff147e9a0 fsub_0x7ffff147eb40)))
 (let (($x1080 (= node_0x7ffff147d9b0 LdMem_0x7ffff14754c0)))
 (let (($x574 (= fsub_0x7ffff147eb40 (bvsub node_0x7ffff147d9b0 node_0x7ffff147e550))))
 (let (($x342 (= node_0x7ffff147e550 LdMem_0x7ffff147e6d0)))
 (let (($x374 (= LdMem_0x7ffff147e6d0 StMem_0x12a757a0)))
 (let (($x513 (= node_0x7ffff147f140 (_ bv0 64))))
 (let (($x508 (= node_0x7ffff147f140 node_0x7ffff147ed70)))
 (let (($x503 (= node_0x7ffff147f140 node_0x7ffff147a130)))
 (let (($x949 (or $x503 $x508 $x513)))
 (let (($x135 (or $x954 $x503)))
 (let (($x719 (= node_0x7ffff147a130 fmul_0x7ffff147a2d0)))
 (let (($x523 (= node_0x7ffff14763a0 (_ bv0 64))))
 (let (($x522 (= node_0x7ffff1479d60 (_ bv0 64))))
 (let (($x524 (or $x522 $x523)))
 (let ((?x520 (bvmul node_0x7ffff1479d60 node_0x7ffff14763a0)))
 (let (($x521 (= fmul_0x7ffff147a2d0 ?x520)))
 (let (($x529 (and $x521 (or $x524 (and (distinct fmul_0x7ffff147a2d0 (_ bv0 64)) true)))))
 (let (($x117 (= node_0x7ffff1479d60 fsub_0x7ffff1479f00)))
 (let (($x894 (= node_0x7ffff1478dc0 LdMem_0x7ffff1478f60)))
 (let (($x535 (= fsub_0x7ffff1479f00 (bvsub node_0x7ffff1478dc0 node_0x7ffff1479960))))
 (let (($x177 (= node_0x7ffff1479960 LdMem_0x7ffff1479ae0)))
 (let (($x269 (= LdMem_0x7ffff1479ae0 StMem_0x12a6f7e0)))
 (let (($x392 (= folt_0x7ffff148cbf0 (ite (bvslt node_0x7ffff1474e20 node_0x7ffff147f140) (_ bv1 1) (_ bv0 1)))))
 (let (($x702 (= node_0x7ffff14744a0 fmul_0x7ffff1474640)))
 (let (($x464 (= node_0x7ffff1470cc0 (_ bv0 64))))
 (let (($x463 (= node_0x7ffff14740d0 (_ bv0 64))))
 (let (($x465 (or $x463 $x464)))
 (let (($x462 (= fmul_0x7ffff1474640 (bvmul node_0x7ffff14740d0 node_0x7ffff1470cc0))))
 (let (($x468 (and $x462 (or $x465 (and (distinct fmul_0x7ffff1474640 (_ bv0 64)) true)))))
 (let (($x185 (= node_0x7ffff14740d0 fsub_0x7ffff1474270)))
 (let (($x126 (= node_0x7ffff14730e0 LdMem_0x7ffff146d200)))
 (let (($x474 (= fsub_0x7ffff1474270 (bvsub node_0x7ffff14730e0 node_0x7ffff1473c80))))
 (let (($x1083 (= node_0x7ffff1473c80 LdMem_0x7ffff1473e00)))
 (let (($x123 (= LdMem_0x7ffff1473e00 StMem_0x12a69230)))
 (let (($x409 (= node_0x7ffff1474e20 (_ bv0 64))))
 (let (($x404 (= node_0x7ffff1474e20 node_0x7ffff14744a0)))
 (let (($x399 (= node_0x7ffff1474e20 node_0x7ffff146ff40)))
 (let (($x124 (or $x399 $x404 $x409)))
 (let (($x929 (= node_0x7ffff1445290 (_ bv1 1))))
 (let (($x406 (not $x929)))
 (let (($x86 (= node_0x7ffff1444e70 (_ bv1 1))))
 (let (($x930 (not $x86)))
 (let (($x986 (not (and $x930 $x406))))
 (let (($x968 (or $x930 $x399)))
 (let (($x743 (= node_0x7ffff146ff40 fmul_0x7ffff14700e0)))
 (let (($x419 (= node_0x7ffff146c880 (_ bv0 64))))
 (let (($x418 (= node_0x7ffff146fb70 (_ bv0 64))))
 (let (($x420 (or $x418 $x419)))
 (let ((?x416 (bvmul node_0x7ffff146fb70 node_0x7ffff146c880)))
 (let (($x423 (and (= fmul_0x7ffff14700e0 ?x416) (or $x420 (and (distinct fmul_0x7ffff14700e0 (_ bv0 64)) true)))))
 (let (($x184 (= node_0x7ffff146fb70 fsub_0x7ffff146fd10)))
 (let (($x113 (= node_0x7ffff146eb80 LdMem_0x7ffff146ed00)))
 (let (($x429 (= fsub_0x7ffff146fd10 (bvsub node_0x7ffff146eb80 node_0x7ffff146f720))))
 (let (($x700 (= node_0x7ffff146f720 LdMem_0x7ffff146f8a0)))
 (let (($x1119 (= LdMem_0x7ffff146f8a0 StMem_0x12a63270)))
 (let (($x818 (= fogt_0x7ffff148ece0 (ite (bvsgt node_0x7ffff148c0d0 carg_node_0x7ffff1443950) (_ bv1 1) (_ bv0 1)))))
 (let (($x1064 (= node_0x7ffff148c0d0 select_0x7ffff148c270)))
 (let (($x600 (= node_0x7ffff148bbe0 (_ bv1 1))))
 (let ((?x601 (ite $x600 node_0x7ffff148a910 node_0x7ffff148b380)))
 (let (($x602 (= select_0x7ffff148c270 ?x601)))
 (let (($x1062 (= node_0x7ffff148bbe0 fogt_0x7ffff148bd60)))
 (let (($x605 (= fogt_0x7ffff148bd60 (ite (bvsgt node_0x7ffff148a910 node_0x7ffff148b380) (_ bv1 1) (_ bv0 1)))))
 (let (($x859 (= node_0x7ffff14879c0 fdiv_0x7ffff1487b60)))
 (let (($x852 (= node_0x7ffff14874d0 LdMem_0x7ffff1487650)))
 (let (($x876 (= LdMem_0x7ffff1487650 StMem_0x12a873f0)))
 (let (($x653 (= node_0x7ffff14874d0 (_ bv0 64))))
 (let (($x652 (= node_0x7ffff14868c0 (_ bv0 64))))
 (let (($x654 (or $x652 $x653)))
 (let (($x651 (= fdiv_0x7ffff1487b60 (bvsdiv node_0x7ffff14868c0 node_0x7ffff14874d0))))
 (let (($x657 (and $x651 (or $x654 (and (distinct fdiv_0x7ffff1487b60 (_ bv0 64)) true)))))
 (let (($x253 (= node_0x7ffff14868c0 fsub_0x7ffff1486a60)))
 (let (($x973 (= node_0x7ffff1486470 LdMem_0x7ffff14865f0)))
 (let (($x1070 (= LdMem_0x7ffff14865f0 StMem_0x12a84650)))
 (let (($x663 (= fsub_0x7ffff1486a60 (bvsub node_0x7ffff1485920 node_0x7ffff1486470))))
 (let (($x917 (= LdMem_0x7ffff14829f0 StMem_0x12a5d480)))
 (let (($x612 (= node_0x7ffff148a910 (_ bv0 64))))
 (let (($x610 (= node_0x7ffff148a910 node_0x7ffff14879c0)))
 (let (($x607 (= node_0x7ffff148a910 node_0x7ffff1482030)))
 (let (($x1015 (or $x607 $x610 $x612)))
 (let (($x221 (= folt_0x7ffff1484c50 (ite (bvslt node_0x7ffff146b6d0 (_ bv0 64)) (_ bv1 1) (_ bv0 1)))))
 (let (($x1025 (= node_0x7ffff14483e0 folt_0x7ffff1484c50)))
 (let (($x1029 (or $x977 $x607)))
 (let (($x1063 (= node_0x7ffff1447850 fogt_0x7ffff147fa50)))
 (let (($x204 (= fogt_0x7ffff147fa50 (ite (bvsgt node_0x7ffff146b6d0 (_ bv0 64)) (_ bv1 1) (_ bv0 1)))))
 (let (($x1038 (= node_0x7ffff146b6d0 LdMem_0x7ffff146b850)))
 (let (($x1060 (= LdMem_0x7ffff146b850 StMem_0x12a57c90)))
 (let (($x1054 (= node_0x7ffff1482030 fdiv_0x7ffff14821d0)))
 (let (($x1068 (= node_0x7ffff1481b40 LdMem_0x7ffff1481cc0)))
 (let (($x141 (= LdMem_0x7ffff1481cc0 StMem_0x12a7b930)))
 (let (($x622 (= node_0x7ffff1481b40 (_ bv0 64))))
 (let (($x621 (= node_0x7ffff1481040 (_ bv0 64))))
 (let (($x623 (or $x621 $x622)))
 (let (($x620 (= fdiv_0x7ffff14821d0 (bvsdiv node_0x7ffff1481040 node_0x7ffff1481b40))))
 (let (($x626 (and $x620 (or $x623 (and (distinct fdiv_0x7ffff14821d0 (_ bv0 64)) true)))))
 (let (($x1004 (= node_0x7ffff1481040 fsub_0x7ffff14811e0)))
 (let (($x1002 (= node_0x7ffff1480bf0 LdMem_0x7ffff1480d70)))
 (let (($x1051 (= LdMem_0x7ffff1480d70 StMem_0x12a78d00)))
 (let (($x632 (= fsub_0x7ffff14811e0 (bvsub node_0x7ffff14800a0 node_0x7ffff1480bf0))))
 (let (($x1067 (= LdMem_0x7ffff1480240 StMem_0x12a5abf0)))
 (let (($x1107 (= node_0x7ffff148b380 select_0x7ffff148b520)))
 (let ((?x685 (ite $x684 node_0x7ffff14757a0 node_0x7ffff147f470)))
 (let (($x686 (= select_0x7ffff148b520 ?x685)))
 (let (($x1106 (= node_0x7ffff148aef0 fogt_0x7ffff148b050)))
 (let (($x688 (= node_0x7ffff14664f0 fmul_0x7ffff1466690)))
 (let (($x554 (= node_0x7ffff146ab20 (_ bv0 64))))
 (let (($x451 (= (_ bv1 64) (_ bv0 64))))
 (let (($x555 (or $x451 $x554)))
 (let (($x594 (and (= fdiv_0x7ffff147b010 (bvsdiv (_ bv1 64) node_0x7ffff146ab20)) (or $x555 (and (distinct fdiv_0x7ffff147b010 (_ bv0 64)) true)))))
 (let (($x790 (or (or (= node_0x7ffff147c610 (_ bv0 64)) $x564) (and (distinct fmul_0x7ffff1466690 (_ bv0 64)) true))))
 (let (($x786 (= fmul_0x7ffff1466690 (bvmul node_0x7ffff147c610 node_0x7ffff147aea0))))
 (let (($x791 (and $x786 $x790)))
 (let (($x783 (= node_0x7ffff147c610 fsub_0x7ffff14662c0)))
 (let (($x193 (= node_0x7ffff147c1c0 LdMem_0x7ffff147c340)))
 (let (($x793 (= LdMem_0x7ffff147c340 StMem_0x12a727c0)))
 (let (($x797 (= fsub_0x7ffff14662c0 (bvsub node_0x7ffff147b670 node_0x7ffff147c1c0))))
 (let (($x1075 (= LdMem_0x7ffff1478f60 StMem_0x12a5d030)))
 (let (($x755 (= node_0x7ffff147f470 (_ bv0 64))))
 (let (($x753 (= node_0x7ffff147f470 node_0x7ffff14664f0)))
 (let (($x750 (= node_0x7ffff147f470 node_0x7ffff14785d0)))
 (let (($x192 (or $x750 $x753 $x755)))
 (let (($x146 (= folt_0x7ffff147a500 (ite (bvslt node_0x7ffff146ab20 (_ bv0 64)) (_ bv1 1) (_ bv0 1)))))
 (let (($x642 (= node_0x7ffff1446bd0 folt_0x7ffff147a500)))
 (let (($x616 (or $x954 $x750)))
 (let (($x104 (= node_0x7ffff1446040 fogt_0x7ffff1475f20)))
 (let (($x132 (= fogt_0x7ffff1475f20 (ite (bvsgt node_0x7ffff146ab20 (_ bv0 64)) (_ bv1 1) (_ bv0 1)))))
 (let (($x614 (= node_0x7ffff146ab20 LdMem_0x7ffff146aca0)))
 (let (($x1109 (= LdMem_0x7ffff146aca0 StMem_0x12a55410)))
 (let (($x191 (= node_0x7ffff14785d0 fmul_0x7ffff1478770)))
 (let (($x558 (and (= fdiv_0x7ffff1476d20 (bvsdiv (_ bv1 64) node_0x7ffff146ab20)) (or $x555 (and (distinct fdiv_0x7ffff1476d20 (_ bv0 64)) true)))))
 (let (($x212 (= node_0x7ffff14763a0 fdiv_0x7ffff1476d20)))
 (let (($x766 (or (or (= node_0x7ffff1478200 (_ bv0 64)) $x523) (and (distinct fmul_0x7ffff1478770 (_ bv0 64)) true))))
 (let (($x762 (= fmul_0x7ffff1478770 (bvmul node_0x7ffff1478200 node_0x7ffff14763a0))))
 (let (($x767 (and $x762 $x766)))
 (let (($x628 (= node_0x7ffff1478200 fsub_0x7ffff14783a0)))
 (let (($x635 (= node_0x7ffff1477db0 LdMem_0x7ffff1477f30)))
 (let (($x208 (= LdMem_0x7ffff1477f30 StMem_0x12a6c720)))
 (let (($x773 (= fsub_0x7ffff14783a0 (bvsub node_0x7ffff1477350 node_0x7ffff1477db0))))
 (let (($x211 (= LdMem_0x7ffff14754c0 StMem_0x12a5a7a0)))
 (let (($x691 (= fogt_0x7ffff148b050 (ite (bvsgt node_0x7ffff14757a0 node_0x7ffff147f470) (_ bv1 1) (_ bv0 1)))))
 (let (($x1105 (= node_0x7ffff1472910 fmul_0x7ffff1472ab0)))
 (let (($x452 (= node_0x7ffff1469fe0 (_ bv0 64))))
 (let (($x453 (or $x451 $x452)))
 (let (($x496 (and (= fdiv_0x7ffff1470e30 (bvsdiv (_ bv1 64) node_0x7ffff1469fe0)) (or $x453 (and (distinct fdiv_0x7ffff1470e30 (_ bv0 64)) true)))))
 (let (($x733 (or (or (= node_0x7ffff1472540 (_ bv0 64)) $x464) (and (distinct fmul_0x7ffff1472ab0 (_ bv0 64)) true))))
 (let (($x729 (= fmul_0x7ffff1472ab0 (bvmul node_0x7ffff1472540 node_0x7ffff1470cc0))))
 (let (($x734 (and $x729 $x733)))
 (let (($x199 (= node_0x7ffff1472540 fsub_0x7ffff14726e0)))
 (let (($x969 (= node_0x7ffff14720f0 LdMem_0x7ffff1472270)))
 (let (($x228 (= LdMem_0x7ffff1472270 StMem_0x12a66250)))
 (let (($x740 (= fsub_0x7ffff14726e0 (bvsub node_0x7ffff1471490 node_0x7ffff14720f0))))
 (let (($x659 (= LdMem_0x7ffff146ed00 StMem_0x12a5cc60)))
 (let (($x698 (= node_0x7ffff14757a0 (_ bv0 64))))
 (let (($x696 (= node_0x7ffff14757a0 node_0x7ffff1472910)))
 (let (($x693 (= node_0x7ffff14757a0 node_0x7ffff146e380)))
 (let (($x596 (or $x693 $x696 $x698)))
 (let (($x103 (= folt_0x7ffff14705a0 (ite (bvslt node_0x7ffff1469fe0 (_ bv0 64)) (_ bv1 1) (_ bv0 1)))))
 (let (($x201 (= node_0x7ffff1445290 folt_0x7ffff14705a0)))
 (let (($x238 (or $x930 $x693)))
 (let (($x981 (= node_0x7ffff1444e70 fogt_0x7ffff146c340)))
 (let (($x176 (= fogt_0x7ffff146c340 (ite (bvsgt node_0x7ffff1469fe0 (_ bv0 64)) (_ bv1 1) (_ bv0 1)))))
 (let (($x834 (= node_0x7ffff1469fe0 LdMem_0x7ffff146a160)))
 (let (($x979 (= LdMem_0x7ffff146a160 StMem_0x12a531d0)))
 (let (($x987 (= node_0x7ffff146e380 fmul_0x7ffff146e520)))
 (let (($x455 (and (= fdiv_0x7ffff146c9f0 (bvsdiv (_ bv1 64) node_0x7ffff1469fe0)) (or $x453 (and (distinct fdiv_0x7ffff146c9f0 (_ bv0 64)) true)))))
 (let (($x1071 (= node_0x7ffff146c880 fdiv_0x7ffff146c9f0)))
 (let (($x709 (or (or (= node_0x7ffff146dfb0 (_ bv0 64)) $x419) (and (distinct fmul_0x7ffff146e520 (_ bv0 64)) true))))
 (let (($x705 (= fmul_0x7ffff146e520 (bvmul node_0x7ffff146dfb0 node_0x7ffff146c880))))
 (let (($x710 (and $x705 $x709)))
 (let (($x604 (= node_0x7ffff146dfb0 fsub_0x7ffff146e150)))
 (let (($x673 (= node_0x7ffff146dbb0 LdMem_0x7ffff146dd30)))
 (let (($x216 (= LdMem_0x7ffff146dd30 StMem_0x12a60190)))
 (let (($x716 (= fsub_0x7ffff146e150 (bvsub node_0x7ffff146d080 node_0x7ffff146dbb0))))
 (let (($x147 (= LdMem_0x7ffff146d200 StMem_0x12a5a3d0)))
 (and (or (not (= R0x7ffff1443440 (_ bv1 1))) $x147) $x147 (= StMem_0x12a5a3d0 pcso_node_0x12a5a1f0) (= node_0x7ffff146d080 LdMem_0x7ffff146d200) $x716 (or (not (= R0x7ffff1443440 (_ bv1 1))) $x216) $x216 (= StMem_0x12a60190 pcso_node_0x12a5ffb0) $x673 $x604 $x710 $x1071 $x455 $x987 (or (not (= R0x7ffff1443440 (_ bv1 1))) $x979) $x979 (= StMem_0x12a531d0 pcso_node_0x12a52ff0) $x834 $x176 $x981 $x238 (or (not (and $x929 $x930)) $x696) $x201 $x103 (or $x986 $x698) $x596 (or (not (= R0x7ffff1443440 (_ bv1 1))) $x659) $x659 (= StMem_0x12a5cc60 pcso_node_0x12a5ca80) (= node_0x7ffff1471490 LdMem_0x7ffff146ed00) $x740 (or (not (= R0x7ffff1443440 (_ bv1 1))) $x228) $x228 (= StMem_0x12a66250 pcso_node_0x12a66070) $x969 $x199 $x734 (= node_0x7ffff1470cc0 fdiv_0x7ffff1470e30) $x496 $x1105 $x691 (or (not (= R0x7ffff1443440 (_ bv1 1))) $x211) $x211 (= StMem_0x12a5a7a0 pcso_node_0x12a5a5f0) (= node_0x7ffff1477350 LdMem_0x7ffff14754c0) $x773 (or (not (= R0x7ffff1443440 (_ bv1 1))) $x208) $x208 (= StMem_0x12a6c720 pcso_node_0x12a6c570) $x635 $x628 $x767 $x212 $x558 $x191 (or (not (= R0x7ffff1443440 (_ bv1 1))) $x1109) $x1109 (= StMem_0x12a55410 pcso_node_0x12a55260) $x614 $x132 $x104 $x616 (or $x215 $x753) $x642 $x146 (or (not (and $x954 (not $x953))) $x755) $x192 (or (not (= R0x7ffff1443440 (_ bv1 1))) $x1075) $x1075 (= StMem_0x12a5d030 pcso_node_0x12a5ce80) (= node_0x7ffff147b670 LdMem_0x7ffff1478f60) $x797 (or (not (= R0x7ffff1443440 (_ bv1 1))) $x793) $x793 (= StMem_0x12a727c0 pcso_node_0x12a72610) $x193 $x783 $x791 (= node_0x7ffff147aea0 fdiv_0x7ffff147b010) $x594 $x688 $x1106 $x686 $x1107 (or (not (= R0x7ffff1443440 (_ bv1 1))) $x1067) $x1067 (= StMem_0x12a5abf0 pcso_node_0x12a5aa40) (= node_0x7ffff14800a0 LdMem_0x7ffff1480240) $x632 (or (not (= R0x7ffff1443440 (_ bv1 1))) $x1051) $x1051 (= StMem_0x12a78d00 pcso_node_0x12a78b50) $x1002 $x1004 $x626 (or (not (= R0x7ffff1443440 (_ bv1 1))) $x141) $x141 (= StMem_0x12a7b930 pcso_node_0x12a7b780) $x1068 $x1054 (or (not (= R0x7ffff1443440 (_ bv1 1))) $x1060) $x1060 (= StMem_0x12a57c90 pcso_node_0x12a57ae0) $x1038 $x204 $x1063 $x1029 (or (not (and $x976 $x977)) $x610) $x1025 $x221 (or $x1055 $x612) $x1015 (or (not (= R0x7ffff1443440 (_ bv1 1))) $x917) $x917 (= StMem_0x12a5d480 pcso_node_0x12a5d2d0) (= node_0x7ffff1485920 LdMem_0x7ffff14829f0) $x663 (or (not (= R0x7ffff1443440 (_ bv1 1))) $x1070) $x1070 (= StMem_0x12a84650 pcso_node_0x12a844a0) $x973 $x253 $x657 (or (not (= R0x7ffff1443440 (_ bv1 1))) $x876) $x876 (= StMem_0x12a873f0 pcso_node_0x12a87240) $x852 $x859 $x605 $x1062 $x602 $x1064 $x818 (= node_0x7ffff1449840 fogt_0x7ffff148ece0) (or (not (= R0x7ffff1443440 (_ bv1 1))) $x1119) $x1119 (= StMem_0x12a63270 pcso_node_0x12a63090) $x700 $x429 $x113 $x184 $x423 $x743 $x968 (or (not (and $x929 $x930)) $x404) (or $x986 $x409) $x124 (or (not (= R0x7ffff1443440 (_ bv1 1))) $x123) $x123 (= StMem_0x12a69230 pcso_node_0x12a69050) $x1083 $x474 $x126 $x185 $x468 $x702 $x392 (or (not (= R0x7ffff1443440 (_ bv1 1))) $x269) $x269 (= StMem_0x12a6f7e0 pcso_node_0x12a6f630) $x177 $x535 $x894 $x117 $x529 $x719 $x135 (or $x215 $x508) (or (not (and $x954 (not $x953))) $x513) $x949 (or (not (= R0x7ffff1443440 (_ bv1 1))) $x374) $x374 (= StMem_0x12a757a0 pcso_node_0x12a755f0) $x342 $x574 $x1080 $x138 $x568 $x136 $x736 $x387 $x188 (or (not (= R0x7ffff1443440 (_ bv1 1))) $x958) $x958 (= StMem_0x12a7ea40 pcso_node_0x12a7e890) $x1091 $x319 $x209 $x966 $x313 (or (not (= R0x7ffff1443440 (_ bv1 1))) $x955) $x955 (= StMem_0x12a81670 pcso_node_0x12a814c0) $x151 $x759 $x757 (or (not (and $x976 $x977)) $x294) (or $x1055 $x299) $x751 (or (not (= R0x7ffff1443440 (_ bv1 1))) $x950) $x950 (= StMem_0x12a8a3d0 pcso_node_0x12a8a220) $x131 $x358 $x187 $x956 $x352 (or (not (= R0x7ffff1443440 (_ bv1 1))) $x962) $x962 (= StMem_0x12a8d000 pcso_node_0x12a8ce50) $x951 $x776 $x280 $x232 $x275 $x965 $x267 $x800 $x222 $x1081 $x811 $x195 $x354 $x837 $x832 (= node_0x7ffff148c630 select_0x7ffff148c7d0) $x826 $x942 (= node_0x7ffff144e270 ieq_0x7ffff1490bc0) $x119 $x291 (or (not (and $x954 (not $x953))) $x1123) (or $x215 $x1123) (or $x258 $x1123 $x1123) $x937 (= node_0x7ffff1454280 ine_0x7ffff1491930)))))))))))))))))))))))))))))))))))))))))))))))))))))))))))))))))))))))))))))))))))))))))))))))))))))))))))))))))))))))))))))))))))))))))))))))))))))))))))))))))))))))))))))))))))))))))))))))))))))))))))))))))))))))))))))))))))))))))))))))))))))))))))))))
(assert
 (= parg_node_0x107b61b0_CS0x406d048 node_0x12a56ef0))
(assert
 (let (($x1157 (= node_0x12a56ef0 LdMem_0x12a56cc0)))
 (let (($x1155 (= LdMem_0x12a56cc0 StMem_0x12a527c0)))
 (and (or (not (= R0x7ffff1443440 (_ bv1 1))) $x1155) $x1155 (= StMem_0x12a527c0 parg_node_0x12a52970) $x1157))))
(assert
 (= node_0x107b7d30_CS0x406d048 pcso_node_0x12a57ae0))
(assert
 (= parg_node_0x12a4df10_CS0x406d548 node_0x12a59e80))
(assert
 (let (($x1138 (= LdMem_0x12a59830 StMem_0x12a599a0)))
 (and (or (not (= R0x7ffff1443440 (_ bv1 1))) $x1138) $x1138 (= StMem_0x12a599a0 parg_node_0x12a59b50) (= node_0x12a59e80 LdMem_0x12a59830))))
(assert
 (= node_0x12a4fab0_CS0x406d548 pcso_node_0x12a5aa40))
(assert
 (= parg_node_0x107ae730_CS0x4072bc8 node_0x12a77f30))
(assert
 (let (($x1187 (= node_0x12a77f30 LdMem_0x12a77bc0)))
 (let (($x1188 (= LdMem_0x12a77bc0 StMem_0x12a5f620)))
 (and (or (not (= R0x7ffff1443440 (_ bv1 1))) $x1188) $x1188 (= StMem_0x12a5f620 parg_node_0x12a5f7d0) $x1187))))
(assert
 (= node_0x107b0280_CS0x4072bc8 pcso_node_0x12a78b50))
(assert
 (= parg_node_0x107b61b0_CS0x4072e38 node_0x12a7ab60))
(assert
 (let (($x1199 (= LdMem_0x12a7a7f0 StMem_0x12a527c0)))
 (and (or (not (= R0x7ffff1443440 (_ bv1 1))) $x1199) $x1199 (= node_0x12a7ab60 LdMem_0x12a7a7f0))))
(assert
 (= node_0x107b7d30_CS0x4072e38 pcso_node_0x12a7b780))
(assert
 (= parg_node_0x12a497d0_CS0x406d7b8 node_0x12a5c710))
(assert
 (let (($x1206 (= node_0x12a5c710 LdMem_0x12a5c060)))
 (let (($x1207 (= LdMem_0x12a5c060 StMem_0x12a5c1d0)))
 (and (or (not (= R0x7ffff1443440 (_ bv1 1))) $x1207) $x1207 (= StMem_0x12a5c1d0 parg_node_0x12a5c380) $x1206))))
(assert
 (= node_0x12a4b3d0_CS0x406d7b8 pcso_node_0x12a5d2d0))
(assert
 (= parg_node_0x107ae730_CS0x4074038 node_0x12a83880))
(assert
 (let (($x1218 (= LdMem_0x12a83510 StMem_0x12a5f620)))
 (and (or (not (= R0x7ffff1443440 (_ bv1 1))) $x1218) $x1218 (= node_0x12a83880 LdMem_0x12a83510))))
(assert
 (= node_0x107b0280_CS0x4074038 pcso_node_0x12a844a0))
(assert
 (and (distinct node_0x7ffff1460eb0 (_ bv0 64)) true))
(minimize pcso_node_0x12a5ca80)
(minimize node_0x7ffff1481b40)
(maximize pcso_node_0x12a5aa40)
(minimize node_0x7ffff146dfb0)
(minimize fdiv_0x7ffff1470e30)
(maximize fogt_0x7ffff146c340)
(maximize node_0x7ffff1472540)
(minimize pcso_node_0x12a69050)
(minimize LdMem_0x7ffff1480d70)
(minimize LdMem_0x7ffff146a160)
(minimize pcso_node_0x12a63090)
(minimize StMem_0x12a5abf0)
(minimize StMem_0x12a5cc60)
(check-sat)
(get-objectives)
